(set-logic QF_S)
(declare-fun var0 () String)
(declare-fun var1 () Int)
(declare-fun var2 () Bool)
(declare-fun var3 () String)
(declare-fun var4 () Int)
(declare-fun var5 () Bool)
(declare-fun var6 () String)
(declare-fun var7 () Int)
(declare-fun var8 () Bool)
(assert (str.prefixof (str.replace var0 var6 var0) (str.++ "{aCDBzfwO," "0]sQQ9s;Wk")))
(assert (<= var7 var1))
(assert (<= (str.indexof var6 var3 var4) (str.indexof var0 var6 var7)))
(assert (str.prefixof (str.substr var6 1 var7) (str.replace var6 var3 var0)))
(check-sat)